p edge 160 670
c 2530
e 0 62 2 0
e 0 88 1 1
e 0 41 1 3
e 0 18 23 4
e 0 131 2 5
e 2 142 3 12
e 2 97 2 13
e 2 42 26 14
e 3 20 1 22
e 3 124 1 23
e 5 95 2 34
e 5 60 1 35
e 5 111 27 36
e 6 37 1 41
e 6 126 1 45
e 7 120 1 46
e 7 138 1 47
e 7 38 1 50
e 7 82 1 51
e 7 123 1 52
e 7 129 1 54
e 7 146 2 55
e 8 86 1 60
e 8 37 1 62
e 8 87 2 63
e 9 19 1 70
e 9 95 1 73
e 9 119 3 74
e 9 157 1 75
e 10 33 1 76
e 10 72 1 77
e 10 16 1 78
e 10 140 1 79
e 10 59 1 81
e 10 88 1 82
e 10 92 1 83
e 10 102 1 84
e 11 102 1 85
e 11 32 2 86
e 11 27 1 88
e 12 143 1 93
e 13 147 1 97
e 13 145 44 99
e 14 32 1 107
e 14 61 1 108
e 15 68 8 117
e 15 97 2 118
e 15 128 1 120
e 16 139 1 122
e 16 66 1 123
e 16 57 1 124
e 16 62 1 125
e 16 149 1 126
e 16 158 1 127
e 18 37 13 135
e 18 120 45 137
e 18 42 8 138
e 18 52 2 139
e 18 111 45 140
e 18 145 12 141
e 18 155 8 142
e 18 159 1 143
e 18 68 33 144
e 18 54 49 145
e 18 98 46 146
e 18 112 43 147
e 18 21 6 148
e 19 133 1 151
e 19 25 1 152
e 19 45 2 153
e 19 72 1 156
e 19 128 1 158
e 19 132 1 159
e 19 137 2 160
e 19 150 1 161
e 19 151 1 162
e 20 26 2 163
e 20 126 1 164
e 20 55 1 167
e 21 114 1 170
e 21 142 2 174
e 22 71 1 177
e 23 114 2 183
e 23 67 1 185
e 24 67 1 192
e 26 150 2 201
e 26 136 1 202
e 26 29 1 203
e 27 98 49 205
e 27 36 1 206
e 27 42 14 207
e 30 59 1 219
e 30 42 29 220
e 30 141 1 222
e 31 122 1 225
e 32 70 1 229
e 32 75 1 230
e 32 111 32 232
e 32 124 2 233
e 33 83 1 237
e 35 67 1 245
e 35 86 1 250
e 36 114 1 254
e 36 122 1 264
e 37 41 1 266
e 37 134 1 267
e 37 56 1 268
e 37 129 1 270
e 38 94 2 271
e 38 91 1 273
e 38 66 1 274
e 38 104 1 275
e 38 127 1 276
e 38 147 1 277
e 39 60 2 278
e 39 88 2 279
e 39 110 3 280
e 39 136 1 282
e 39 147 2 283
e 40 157 1 284
e 41 71 1 293
e 41 119 2 297
e 42 113 42 298
e 42 88 19 300
e 42 111 29 301
e 42 145 3 302
e 42 52 37 303
e 42 112 11 304
e 42 54 27 305
e 42 155 25 306
e 42 57 19 307
e 42 68 19 308
e 42 98 49 309
e 42 110 22 310
e 44 86 1 319
e 45 102 1 326
e 45 149 1 331
e 46 114 1 334
e 46 131 1 336
e 47 141 1 340
e 48 66 1 342
e 48 63 2 343
e 48 59 1 344
e 48 93 1 345
e 48 82 1 346
e 48 108 1 347
e 49 86 1 351
e 50 102 1 354
e 51 142 1 365
e 52 146 33 366
e 52 98 28 368
e 52 54 28 369
e 52 68 36 370
e 52 111 8 371
e 52 145 25 372
e 52 155 19 373
e 52 84 24 374
e 52 112 26 375
e 52 137 21 377
e 53 126 1 378
e 53 83 1 381
e 53 145 22 382
e 54 68 40 388
e 54 87 24 391
e 54 98 48 394
e 54 111 44 396
e 54 112 8 397
e 56 106 1 404
e 57 102 1 405
e 58 128 2 409
e 61 145 44 420
e 61 139 1 421
e 62 153 2 422
e 62 86 1 424
e 62 102 1 425
e 63 67 2 428
e 64 67 2 430
e 64 95 1 432
e 64 145 13 435
e 66 145 2 439
e 66 124 1 442
e 67 128 1 445
e 67 119 1 446
e 68 154 1 447
e 68 142 25 448
e 68 121 24 449
e 68 98 2 450
e 68 111 21 451
e 68 112 24 452
e 68 145 11 453
e 68 155 43 454
e 70 117 1 461
e 70 112 33 462
e 71 97 1 463
e 71 73 1 466
e 71 77 1 467
e 71 150 1 468
e 73 104 2 473
e 74 95 1 476
e 76 147 1 485
e 77 145 34 489
e 77 126 1 490
e 77 155 40 492
e 78 106 1 494
e 78 128 1 495
e 79 86 1 497
e 79 83 1 498
e 80 117 2 500
e 80 86 2 501
e 81 87 1 506
e 81 131 1 507
e 83 156 1 509
e 83 140 1 510
e 83 154 1 512
e 85 128 1 517
e 86 94 1 523
e 86 110 2 524
e 86 100 2 525
e 87 117 2 527
e 89 147 1 533
e 90 104 1 534
e 90 128 2 536
e 91 111 44 539
e 92 111 44 541
e 92 98 32 542
e 92 112 42 543
e 92 117 1 544
e 93 147 1 547
e 94 97 1 551
e 95 142 1 553
e 95 156 1 554
e 95 152 2 555
e 96 97 1 558
e 96 155 46 563
e 97 117 1 564
e 98 131 7 566
e 98 137 47 569
e 98 145 45 570
e 98 111 5 571
e 98 112 19 572
e 98 155 49 573
e 101 128 1 582
e 102 124 3 583
e 102 144 2 584
e 103 157 1 585
e 105 114 1 586
e 105 130 2 588
e 105 131 1 589
e 106 126 1 590
e 106 116 1 592
e 106 107 1 593
e 107 143 2 595
e 109 111 9 598
e 111 118 38 601
e 111 145 32 603
e 111 112 27 604
e 111 155 5 605
e 112 127 9 606
e 112 158 49 607
e 112 145 1 608
e 112 155 28 609
e 112 115 25 610
e 112 130 46 611
e 114 151 1 612
e 114 152 2 613
e 114 136 1 614
e 115 149 1 615
e 116 122 2 619
e 117 147 2 623
e 117 124 1 624
e 118 153 1 626
e 118 126 1 627
e 118 149 1 628
e 119 142 1 629
e 120 142 1 631
e 123 143 1 636
e 123 157 1 637
e 124 138 1 638
e 124 144 1 639
e 126 142 1 640
e 130 132 1 643
e 131 135 1 645
e 131 141 1 646
e 133 142 1 651
e 141 150 1 658
e 143 150 2 659
e 143 152 1 660
e 145 155 12 662
e 149 159 1 665
e 150 153 1 666
e 153 154 2 668
